NAME : OCPPP4.gtsp
TYPE : AGTSP
COMMENT : 18 node
DIMENSION : 18
GTSP_SETS : 9
EDGE_WEIGHT_TYPE : EXPLICIT
EDGE_WEIGHT_FORMAT : FULL_MATRIX 
EDGE_WEIGHT_SECTION
1 9999 9999 1 9999 9999 9999 9999 9999 9999 9999 9999 9999 9999 1 9999 9999 9999
9999 1 1 9999 9999 9999 9999 9999 9999 9999 9999 9999 9999 9999 9999 9999 9999 9999
9999 1 1 9999 9999 9999 9999 9999 9999 9999 9999 9999 9999 9999 9999 1 9999 9999
1 9999 9999 1 1 9999 9999 9999 9999 9999 9999 9999 9999 9999 9999 9999 9999 9999
9999 9999 9999 9999 9999 9999 9999 9999 9999 9999 9999 9999 9999 9999 9999 1 9999 9999
9999 9999 1 9999 9999 9999 9999 9999 9999 9999 9999 9999 9999 9999 9999 9999 9999 9999
9999 9999 9999 9999 9999 9999 9999 9999 9999 1 9999 9999 9999 9999 9999 9999 1 9999
9999 9999 9999 9999 9999 9999 9999 9999 1 9999 9999 9999 9999 9999 9999 9999 9999 9999
9999 9999 9999 9999 9999 9999 9999 1 9999 9999 9999 1 9999 9999 9999 9999 9999 9999
9999 9999 9999 9999 9999 9999 1 9999 9999 9999 1 9999 9999 9999 9999 9999 9999 9999
9999 9999 9999 9999 9999 9999 9999 9999 9999 1 9999 9999 9999 9999 9999 9999 9999 1
9999 9999 9999 9999 9999 9999 9999 9999 1 9999 9999 9999 1 9999 9999 9999 9999 9999
9999 9999 9999 9999 9999 9999 9999 9999 9999 9999 9999 9999 9999 9999 9999 9999 9999 1
9999 9999 9999 9999 9999 9999 9999 9999 9999 9999 1 9999 9999 9999 9999 9999 9999 9999
9999 9999 9999 1 9999 1 9999 9999 9999 9999 9999 9999 9999 9999 1 9999 9999 9999
9999 1 9999 9999 9999 9999 9999 9999 9999 9999 9999 9999 9999 9999 9999 1 9999 9999
9999 9999 9999 9999 9999 9999 9999 9999 9999 9999 9999 1 9999 1 9999 9999 9999 9999
9999 9999 9999 9999 9999 9999 9999 1 9999 9999 9999 9999 9999 9999 9999 9999 9999 9999



GTSP_SET_SECTION
1 1 2 -1
2 3 4 -1
3 5 6 -1
4 7 8 -1
5 9 10 -1
6 11 12 -1
7 13 14 -1
8 15 16 -1
9 17 18 -1
EOF
